certificates/rado_a11_c160_N33.cnf
c Rad2 upper bound instance: x1 + 11*x2 - x3 = 160, interval [1,33]
p cnf 33 196
1 6 15 0
-1 -6 -15 0
1 16 17 0
-1 -16 -17 0
1 17 28 0
-1 -17 -28 0
2 7 15 0
-2 -7 -15 0
2 16 18 0
-2 -16 -18 0
2 17 29 0
-2 -17 -29 0
3 8 15 0
-3 -8 -15 0
3 16 19 0
-3 -16 -19 0
3 17 30 0
-3 -17 -30 0
4 9 15 0
-4 -9 -15 0
4 16 20 0
-4 -16 -20 0
4 17 31 0
-4 -17 -31 0
5 10 15 0
-5 -10 -15 0
5 16 21 0
-5 -16 -21 0
5 17 32 0
-5 -17 -32 0
6 11 15 0
-6 -11 -15 0
6 16 22 0
-6 -16 -22 0
6 17 33 0
-6 -17 -33 0
1 7 14 0
-1 -7 -14 0
7 12 15 0
-7 -12 -15 0
7 16 23 0
-7 -16 -23 0
2 8 14 0
-2 -8 -14 0
8 13 15 0
-8 -13 -15 0
8 16 24 0
-8 -16 -24 0
3 9 14 0
-3 -9 -14 0
9 14 15 0
-9 -14 -15 0
9 16 25 0
-9 -16 -25 0
4 10 14 0
-4 -10 -14 0
10 15 0
-10 -15 0
10 16 26 0
-10 -16 -26 0
5 11 14 0
-5 -11 -14 0
11 15 16 0
-11 -15 -16 0
11 16 27 0
-11 -16 -27 0
6 12 14 0
-6 -12 -14 0
12 15 17 0
-12 -15 -17 0
12 16 28 0
-12 -16 -28 0
7 13 14 0
-7 -13 -14 0
13 15 18 0
-13 -15 -18 0
13 16 29 0
-13 -16 -29 0
8 14 0
-8 -14 0
14 15 19 0
-14 -15 -19 0
14 16 30 0
-14 -16 -30 0
15 20 0
-15 -20 0
15 16 31 0
-15 -16 -31 0
10 14 16 0
-10 -14 -16 0
15 16 21 0
-15 -16 -21 0
16 32 0
-16 -32 0
11 14 17 0
-11 -14 -17 0
15 17 22 0
-15 -17 -22 0
16 17 33 0
-16 -17 -33 0
1 13 18 0
-1 -13 -18 0
12 14 18 0
-12 -14 -18 0
15 18 23 0
-15 -18 -23 0
2 13 19 0
-2 -13 -19 0
13 14 19 0
-13 -14 -19 0
15 19 24 0
-15 -19 -24 0
3 13 20 0
-3 -13 -20 0
14 20 0
-14 -20 0
15 20 25 0
-15 -20 -25 0
4 13 21 0
-4 -13 -21 0
14 15 21 0
-14 -15 -21 0
15 21 26 0
-15 -21 -26 0
5 13 22 0
-5 -13 -22 0
14 16 22 0
-14 -16 -22 0
15 22 27 0
-15 -22 -27 0
6 13 23 0
-6 -13 -23 0
14 17 23 0
-14 -17 -23 0
15 23 28 0
-15 -23 -28 0
7 13 24 0
-7 -13 -24 0
14 18 24 0
-14 -18 -24 0
15 24 29 0
-15 -24 -29 0
8 13 25 0
-8 -13 -25 0
14 19 25 0
-14 -19 -25 0
15 25 30 0
-15 -25 -30 0
9 13 26 0
-9 -13 -26 0
14 20 26 0
-14 -20 -26 0
15 26 31 0
-15 -26 -31 0
10 13 27 0
-10 -13 -27 0
14 21 27 0
-14 -21 -27 0
15 27 32 0
-15 -27 -32 0
11 13 28 0
-11 -13 -28 0
14 22 28 0
-14 -22 -28 0
15 28 33 0
-15 -28 -33 0
1 12 29 0
-1 -12 -29 0
12 13 29 0
-12 -13 -29 0
14 23 29 0
-14 -23 -29 0
2 12 30 0
-2 -12 -30 0
13 30 0
-13 -30 0
14 24 30 0
-14 -24 -30 0
3 12 31 0
-3 -12 -31 0
13 14 31 0
-13 -14 -31 0
14 25 31 0
-14 -25 -31 0
4 12 32 0
-4 -12 -32 0
13 15 32 0
-13 -15 -32 0
14 26 32 0
-14 -26 -32 0
5 12 33 0
-5 -12 -33 0
13 16 33 0
-13 -16 -33 0
14 27 33 0
-14 -27 -33 0
