certificates/rado_a11_c160_N33.drat
-17 -28 -33 0
-28 -29 16 -33 0
-29 16 -33 0
d -28 -29 16 -33 0
-32 -33 0
-33 0
17 28 -15 0
-17 -16 -15 0
-16 -15 0
d -17 -16 -15 0
-15 0
10 0
20 0
28 0
-14 0
9 0
8 0
19 0
21 0
27 0
-13 0
30 0
32 0
16 0
18 0
31 0
7 0
0
